8799844621055737998503,7,1,2,014,14,1,2,011,3,1,2,012,7,1,2,04,11,1,2,014,5,1,2,09,5,1,2,014,1,1,2,015,14,1,2,09,3,1,2,05,15,1,2,05,10,1,2,012,13,1,2,015,10,1,2,01,14,1,2,013,12,1,2,011,10,1,2,04,2,1,2,07,11,1,2,010,3,1,2,013,4,1,2,05,9,1,2,05,11,1,2,09,8,1,2,07,13,1,2,08,7,1,2,07,9,1,2,07,5,1,2,06,6,1,2,07,4,1,2,07,9,1,2,09,10,1,2,09,1,1,2,09,4,1,2,011,4,1,2,010,6,1,2,015,7,1,2,08,2,1,2,013,10,1,2,013,15,1,2,014,7,1,2,05,2,1,2,02,12,1,2,04,6,1,2,015,6,1,2,013,6,1,2,07,11,1,2,02,7,1,2,02,13,1,2,013,2,1,2,0